\* Improving_ex_post_stable_matchings *\
Minimize
OBJ: 1.28571428571 w_0 + 1.42857142857 w_1
Subject To
FOSD_0_0: w_0 + w_1 >= 1
FOSD_0_2: w_0 + w_1 >= 1
FOSD_0_3: w_0 + w_1 >= 1
FOSD_1_0: w_0 + w_1 >= 1
FOSD_1_2: w_0 + w_1 >= 1
_dummy: __dummy = 0
FOSD_1_3: __dummy >= 0
FOSD_2_3: w_0 + w_1 >= 1
FOSD_2_4: w_0 + w_1 >= 1
FOSD_3_2: w_0 + w_1 >= 1
FOSD_3_3: w_1 >= 0.493
FOSD_4_0: w_0 + w_1 >= 1
FOSD_4_1: w_0 + w_1 >= 1
FOSD_5_0: w_0 + w_1 >= 1
FOSD_5_2: w_0 + w_1 >= 1
FOSD_5_4: w_0 >= 0.507
FOSD_6_2: w_0 + w_1 >= 1
FOSD_6_3: w_0 >= 0.507
FOSD_6_4: w_0 + w_1 >= 1
GE0_0: w_0 >= 0
GE0_1: w_1 >= 0
Sum_to_one: w_0 + w_1 = 1
Bounds
 __dummy = 0
 w_0 free
 w_1 free
End
